c ---- [ banner ] ------------------------------------------------------------
c
c Kissat SAT Solver
c 
c Copyright (c) 2021-2024 Armin Biere University of Freiburg
c Copyright (c) 2019-2021 Armin Biere Johannes Kepler University Linz
c 
c Version 4.0.1 43f02cf3e992cb44653b35e5cb26f93281552ae0
c gcc (Ubuntu 13.2.0-23ubuntu4) 13.2.0 -W -Wall -O3 -DNDEBUG
c Thu Sep 12 12:27:46 CEST 2024 Linux abryzen9 6.8.0-41-generic x86_64
c
c ---- [ parsing ] -----------------------------------------------------------
c
c opened and reading DIMACS file:
c
c   /data/artifact/AMulet2.0_artifact/exp4/cnf_sopb_64/64_64_U1_DT_BK_Multgen_sopb.cnf
c
c parsed 'p cnf 27739 125334' header
c closing input after reading 2524850 bytes (2 MB)
c finished parsing after 0.02 seconds
c
c ---- [ options ] -----------------------------------------------------------
c
c --stable=0                       (different from default '1')
c
c ---- [ solving ] -----------------------------------------------------------
c
c  seconds switched rate     size/glue tier1  binary           remaining
c         MB reductions conflicts size  tier2     irredundant
c          level restarts redundant glue  trail           variables
c
c *  0.02 10 0 0 0  0 0   0   0 0.0 0 0 0 0 0% 10929 114403 27736 100%
c (  0.03 12 0 0 0  0 0   0   0 0.0 0 0 0 0 0% 10929 114403 27736 100%
c .  0.03 12 0 0 0  0 0   0   0 0.0 0 0 0 0 0% 10925 114403 27736 100%
c c  0.07 17 0 0 0  0 0   0   0 0.0 0 0 0 0 0% 15098 106099 25660 93%
c d  0.07 17 0 0 0  0 0   0   0 0.0 0 0 0 0 0% 10946 106099 25660 93%
c =  0.11 17 0 0 0  0 0   0   0 0.0 0 0 0 0 0% 11060 106097 25603 92%
c d  0.11 17 0 0 0  0 0   0   0 0.0 0 0 0 0 0% 10946 106097 25603 92%
c f  0.17 16 0 0 0  0 0   0   0 0.0 0 0 0 0 0% 16089 97922 28537 103%
c e  0.30 23 0 0 0  0 0   0   0 0.0 0 0 0 0 0% 9717 106456 19678 71%
c )  0.30 23 0 0 0  0 0   0   0 0.0 0 0 0 0 0% 9717 106456 19678 71%
c {  0.31 23 0 0 0  0 0   0   0 0.0 0 0 2 6 0% 9717 106456 19678 71%
c -  0.65 24 235 0 1 230 47 1002 749 3.3 18 5 3 10 25% 9753 106453 19678 71%
c -  1.02 24 411 0 2 372 52 2005 1527 4.3 24 6 3 11 27% 9760 106453 19678 71%
c c  1.30 20 361 0 2 443 47 2502 1961 4.0 23 6 3 11 27% 9777 106417 19671 71%
c d  1.31 20 361 0 2 443 47 2502 1943 4.0 23 6 3 11 27% 9763 106417 19671 71%
c u  1.35 20 361 0 2 443 47 2502 1587 4.0 23 6 3 11 27% 9777 106417 19671 71%
c v  1.39 20 361 0 2 443 47 2502 1379 4.0 23 6 3 11 27% 9777 106417 19671 71%
c w  1.42 24 361 0 2 443 47 2502 1379 4.0 23 6 3 11 27% 9777 106417 19671 71%
c x  1.44 24 361 0 2 443 47 2502 1379 4.0 23 6 3 11 27% 9777 106385 19671 71%
c =  1.54 24 361 0 2 443 47 2502 1379 4.0 23 6 3 11 27% 10081 106385 19519 70%
c
c  seconds   switched   rate       size/glue tier1     binary          remaining
c         MB  reductions conflicts       size  tier2      irredundant
c           level restarts    redundant    glue    trail          variables
c
c d  1.55 24 361 0 2 443 47 2502 1376 4.0 23 6 3 11 27% 9731 106385 19519 70%
c t  1.56 24 361 0 2 443 47 2502 1376 4.0 23 6 3 11 27% 9729 106385 19519 70%
c f  1.60 24 361 0 2 443 47 2502 1376 4.0 23 6 3 11 27% 10488 104907 20206 73%
c u  1.64 24 361 0 2 443 47 2502 1343 4.0 23 6 3 11 27% 10492 104907 20206 73%
c v  1.67 24 361 0 2 443 47 2502 1299 4.0 23 6 3 11 27% 10492 104907 20206 73%
c w  1.71 24 361 0 2 443 47 2502 1296 4.0 23 6 3 11 27% 10492 104907 20206 73%
c =  1.79 24 361 0 2 443 47 2502 1296 4.0 23 6 3 11 27% 10756 104907 20074 72%
c d  1.80 24 361 0 2 443 47 2502 1295 4.0 23 6 3 11 27% 10430 104907 20073 72%
c f  1.86 24 361 0 2 443 47 2502 1295 4.0 23 6 3 11 27% 11542 103199 20630 74%
c -  2.26 25 350 0 3 601 49 3419 1767 4.3 28 6 3 11 27% 11568 103199 20630 74%
c -  2.86 25 314 0 4 820 41 5151 2759 4.1 27 7 3 11 27% 11641 103199 20630 74%
c -  3.58 25 309 0 5 1077 40 7151 3956 4.1 28 7 3 11 28% 11681 103199 20630 74%
c c  3.84 25 301 0 5 1148 39 7708 4449 4.0 27 7 3 11 28% 11707 102943 20574 74%
c d  3.85 25 301 0 5 1148 39 7708 4382 4.0 27 7 3 11 28% 11595 102943 20574 74%
c u  3.89 25 301 0 5 1148 39 7708 3732 4.0 27 7 3 11 28% 11615 102943 20574 74%
c v  3.93 25 301 0 5 1148 39 7708 3390 4.0 27 7 3 11 28% 11615 102943 20574 74%
c w  3.99 25 301 0 5 1148 39 7708 3378 4.0 27 7 3 11 28% 11615 102943 20574 74%
c x  4.03 25 301 0 5 1148 39 7708 3378 4.0 27 7 3 11 28% 11615 102624 20574 74%
c =  4.19 25 301 0 5 1148 39 7708 3378 4.0 27 7 3 11 28% 12527 102620 20118 73%
c d  4.20 25 301 0 5 1148 39 7708 3367 4.0 27 7 3 11 28% 11426 102620 20117 73%
c
c  seconds   switched    rate       size/glue tier1     binary           remaining
c         MB  reductions  conflicts       size  tier2       irredundant
c           level  restarts    redundant    glue    trail           variables
c
c t  4.22 25 301 0 5 1148 39 7708 3367 4.0 27 7 3 11 28% 11422 102620 20117 73%
c f  4.28 25 301 0 5 1148 39 7708 3367 4.0 27 7 3 11 28% 12790 100565 20801 75%
c u  4.38 25 301 0 5 1148 39 7708 3255 4.0 27 7 3 11 28% 12792 100565 20801 75%
c v  4.42 25 301 0 5 1148 39 7708 3167 4.0 27 7 3 11 28% 12792 100565 20801 75%
c w  4.47 25 301 0 5 1148 39 7708 3165 4.0 27 7 3 11 28% 12792 100565 20801 75%
c x  4.52 25 301 0 5 1148 39 7708 3164 4.0 27 7 3 11 28% 12792 99748 20801 75%
c =  4.70 25 301 0 5 1148 39 7708 3164 4.0 27 7 3 11 28% 13494 99748 20450 74%
c d  4.71 25 301 0 5 1148 39 7708 3152 4.0 27 7 3 11 28% 12672 99748 20450 74%
c t  4.73 25 301 0 5 1148 39 7708 3152 4.0 27 7 3 11 28% 12603 99748 20450 74%
c f  4.79 25 301 0 5 1148 39 7708 3152 4.0 27 7 3 11 28% 14474 96933 21386 77%
c -  5.41 25 295 0 6 1320 38 9387 4008 4.0 27 7 3 11 28% 14530 96933 21386 77%
c o  5.58 25 297 0 6 1350 37 10005 4542 4.0 27 7 3 11 29% 14550 96933 21386 77%
c -  6.27 25 308 0 7 1558 38 11836 5228 4.2 30 7 2 11 29% 14604 96933 21386 77%
c 2  6.45 25 303 0 7 1590 36 12509 5824 4.2 29 7 2 11 29% 14619 96933 21385 77%
c s  6.49 25 303 0 7 1590 36 12509 5824 4.2 29 7 2 11 29% 14620 94286 21385 77%
c e  6.63 25 303 0 7 1590 36 12509 5824 4.2 29 7 2 11 29% 13785 94828 20688 75%
c s  6.64 25 303 0 7 1590 36 12509 5824 4.2 29 7 2 11 29% 13790 93966 20688 75%
c e  6.66 25 303 0 7 1590 36 12509 5824 4.2 29 7 2 11 29% 13248 94272 20414 74%
c ^  6.66 25 303 0 7 1590 36 12509 5824 4.2 29 7 2 11 29% 13248 94272 20414 74%
c -  7.29 25 298 0 8 1788 36 14481 6065 4.1 29 7 2 10 29% 13309 94272 20414 74%
c
c  seconds   switched    rate        size/glue tier1     binary          remaining
c         MB  reductions   conflicts       size  tier2       irredundant
c           level  restarts     redundant    glue    trail          variables
c
c d  7.67 25 305 0 8 1882 36 15790 7129 4.2 29 7 2 10 29% 12792 94272 20086 72%
c u  7.72 25 305 0 8 1882 36 15790 6277 4.2 29 7 2 10 29% 12801 94272 20086 72%
c v  7.78 25 305 0 8 1882 36 15790 5371 4.2 29 7 2 10 29% 12802 94272 20086 72%
c w  7.89 25 305 0 8 1882 36 15790 5368 4.2 29 7 2 10 29% 12802 94272 20086 72%
c x  7.93 25 305 0 8 1882 36 15790 5368 4.2 29 7 2 10 29% 12802 93685 20086 72%
c =  8.20 25 305 0 8 1882 36 15790 5368 4.2 29 7 2 10 29% 13702 93685 19636 71%
c d  8.21 25 305 0 8 1882 36 15790 5308 4.2 29 7 2 10 29% 12593 93685 19633 71%
c t  8.23 25 305 0 8 1882 36 15790 5308 4.2 29 7 2 10 29% 12549 93685 19633 71%
c f  8.30 25 305 0 8 1882 36 15790 5308 4.2 29 7 2 10 29% 12622 93512 19679 71%
c c  8.37 25 305 0 8 1882 36 15790 5307 4.2 29 7 2 10 29% 12628 93488 19676 71%
c d  8.38 25 305 0 8 1882 36 15790 5307 4.2 29 7 2 10 29% 12622 93488 19676 71%
c u  8.42 25 305 0 8 1882 36 15790 5132 4.2 29 7 2 10 29% 12623 93488 19676 71%
c v  8.46 25 305 0 8 1882 36 15790 5022 4.2 29 7 2 10 29% 12623 93488 19676 71%
c w  8.58 25 305 0 8 1882 36 15790 5007 4.2 29 7 2 10 29% 12624 93488 19676 71%
c x  8.63 25 305 0 8 1882 36 15790 5005 4.2 29 7 2 10 29% 12624 92894 19676 71%
c =  8.89 25 305 0 8 1882 36 15790 5005 4.2 29 7 2 10 29% 16406 92894 17785 64%
c d  8.91 25 305 0 8 1882 36 15790 4852 4.2 29 7 2 10 29% 10939 92894 17785 64%
c f  8.98 25 305 0 8 1882 36 15790 4852 4.2 29 7 2 10 29% 10943 92886 17787 64%
c -  9.30 25 320 0 9 1960 35 17309 5507 4.1 29 7 2 10 29% 10961 92886 17787 64%
c o  9.94 25 315 0 9 2184 34 20009 7878 4.1 30 7 2 10 28% 10992 92885 17787 64%
c
c  seconds   switched     rate        size/glue tier1    binary          remaining
c         MB   reductions   conflicts       size  tier2      irredundant
c           level   restarts     redundant    glue   trail          variables
c
c - 10.09 25 313 0 10 2235 35 20309 7230 4.1 30 7 2 9 28% 10995 92885 17787 64%
c - 11.30 25 305 0 11 2555 34 23471 8791 4.3 33 8 2 9 29% 11058 92885 17787 64%
c s 11.72 25 304 0 11 2678 34 25012 10203 4.3 32 8 2 9 29% 11081 87373 17787 64%
c e 11.85 25 304 0 11 2678 34 25012 10203 4.3 32 8 2 9 29% 9140 89923 16686 60%
c s 11.86 25 304 0 11 2678 34 25012 10203 4.3 32 8 2 9 29% 9147 89620 16686 60%
c e 11.87 25 304 0 11 2678 34 25012 10203 4.3 32 8 2 9 29% 9087 89689 16660 60%
c ^ 11.87 25 304 0 11 2678 34 25012 10203 4.3 32 8 2 9 29% 9087 89689 16660 60%
c - 12.22 25 314 0 12 2771 34 26787 9643 4.3 32 7 2 8 28% 9112 89689 16660 60%
c d 12.25 25 314 0 12 2773 34 26917 9725 4.2 32 7 2 8 28% 9033 89689 16613 60%
c u 12.31 25 314 0 12 2773 34 26917 8474 4.2 32 7 2 8 28% 9044 89689 16613 60%
c v 12.37 25 314 0 12 2773 34 26917 7406 4.2 32 7 2 8 28% 9046 89689 16613 60%
c w 12.39 25 314 0 12 2773 34 26917 7403 4.2 32 7 2 8 28% 9046 89689 16613 60%
c x 12.49 25 314 0 12 2773 34 26917 7395 4.2 32 7 2 8 28% 9048 88698 16613 60%
c = 12.77 25 314 0 12 2773 34 26917 7395 4.2 32 7 2 8 28% 11080 88698 15597 56%
c d 12.78 25 314 0 12 2773 34 26917 7282 4.2 32 7 2 8 28% 8995 88698 15597 56%
c t 12.81 25 314 0 12 2773 34 26917 7282 4.2 32 7 2 8 28% 8986 88698 15597 56%
c f 12.87 25 314 0 12 2773 34 26917 7282 4.2 32 7 2 8 28% 9051 88521 15630 56%
c u 12.93 25 314 0 12 2773 34 26917 7000 4.2 32 7 2 8 28% 9054 88521 15630 56%
c v 12.97 25 314 0 12 2773 34 26917 6852 4.2 32 7 2 8 28% 9054 88521 15630 56%
c w 12.98 25 314 0 12 2773 34 26917 6849 4.2 32 7 2 8 28% 9054 88521 15630 56%
c
c  seconds   switched     rate        size/glue tier1    binary         remaining
c         MB   reductions   conflicts       size  tier2     irredundant
c           level   restarts     redundant    glue   trail         variables
c
c x 13.11 25 314 0 12 2773 34 26917 6849 4.2 32 7 2 8 28% 9054 84266 15630 56%
c = 13.36 25 314 0 12 2773 34 26917 6849 4.2 32 7 2 8 28% 9064 84266 15625 56%
c d 13.37 25 314 0 12 2773 34 26917 6849 4.2 32 7 2 8 28% 9054 84266 15625 56%
c - 14.10 25 314 0 13 3016 32 30251 8726 4.1 31 7 2 8 28% 9100 84266 15625 56%
c - 15.17 25 301 0 14 3405 32 33858 10556 4.2 31 7 2 8 28% 9155 84266 15625 56%
c - 16.34 25 286 0 15 3795 31 37600 12164 4.2 32 8 2 7 28% 9195 84266 15625 56%
c o 17.15 25 281 0 15 4065 31 40010 14163 4.2 33 8 2 7 28% 9251 84266 15625 56%
c c 17.71 25 280 0 15 4219 32 41245 15320 4.2 34 8 2 7 28% 9346 83624 15506 56%
c d 17.72 25 280 0 15 4219 32 41245 14959 4.2 34 8 2 7 28% 9108 83624 15506 56%
c u 17.80 25 280 0 15 4219 32 41245 12799 4.2 34 8 2 7 28% 9132 83624 15506 56%
c v 17.90 25 280 0 15 4219 32 41245 11301 4.2 34 8 2 7 28% 9135 83624 15506 56%
c w 18.02 25 280 0 15 4219 32 41245 11300 4.2 34 8 2 7 28% 9135 83624 15506 56%
c x 18.14 25 280 0 15 4219 32 41245 11298 4.2 34 8 2 7 28% 9135 80562 15506 56%
c = 18.49 25 280 0 15 4219 32 41245 11298 4.2 34 8 2 7 28% 9525 80562 15311 55%
c d 18.50 25 280 0 15 4219 32 41245 11122 4.2 34 8 2 7 28% 9094 80562 15306 55%
c t 18.52 25 280 0 15 4219 32 41245 11122 4.2 34 8 2 7 28% 9091 80562 15306 55%
c f 18.55 25 280 0 15 4219 32 41245 11122 4.2 34 8 2 7 28% 9093 80557 15307 55%
c u 18.62 25 280 0 15 4219 32 41245 10665 4.2 34 8 2 7 28% 9098 80557 15307 55%
c v 18.68 25 280 0 15 4219 32 41245 10397 4.2 34 8 2 7 28% 9098 80557 15307 55%
c w 18.86 25 280 0 15 4219 32 41245 10394 4.2 34 8 2 7 28% 9098 80557 15307 55%
c
c  seconds   switched     rate         size/glue tier1    binary         remaining
c         MB   reductions   conflicts        size  tier2     irredundant
c           level   restarts      redundant    glue   trail         variables
c
c x 18.96 25 280 0 15 4219 32 41245 10393 4.2 34 8 2 7 28% 9098 79188 15307 55%
c = 19.34 25 280 0 15 4219 32 41245 10393 4.2 34 8 2 7 28% 11354 79188 14179 51%
c d 19.35 25 280 0 15 4219 32 41245 10191 4.2 34 8 2 7 28% 9045 79188 14177 51%
c f 19.41 25 280 0 15 4219 32 41245 10191 4.2 34 8 2 7 28% 9059 79153 14184 51%
c - 19.48 25 279 0 16 4248 32 41472 9183 4.2 34 8 2 7 28% 9060 79153 14184 51%
c - 20.01 25 269 0 17 4460 30 45474 11189 4.1 33 8 2 7 27% 9095 79153 14184 51%
c - 20.93 25 263 0 18 4790 29 49600 13180 4.0 32 8 2 6 27% 9172 79153 14184 51%
c s 21.33 25 257 0 18 4923 29 52113 15342 3.9 31 8 2 6 27% 9203 72094 14184 51%
c e 21.44 25 257 0 18 4923 29 52113 15342 3.9 31 8 2 6 27% 8620 73072 13759 50%
c s 21.44 25 257 0 18 4923 29 52113 15342 3.9 31 8 2 6 27% 8620 72694 13759 50%
c e 21.46 25 257 0 18 4923 29 52113 15342 3.9 31 8 2 6 27% 8554 72794 13726 49%
c ^ 21.46 25 257 0 18 4923 29 52113 15342 3.9 31 8 2 6 27% 8554 72794 13726 49%
c - 22.19 25 254 0 19 5190 29 53844 13698 3.9 32 8 2 6 27% 8569 72794 13726 49%
c - 22.77 25 251 0 20 5373 28 58203 15288 3.9 31 8 2 6 26% 8635 72794 13726 49%
c c 22.92 25 252 0 20 5407 27 58880 15855 3.9 31 8 2 6 26% 8720 72284 13651 49%
c d 22.93 25 252 0 20 5407 27 58880 15665 3.9 31 8 2 6 26% 8570 72284 13651 49%
c u 23.01 25 252 0 20 5407 27 58880 12860 3.9 31 8 2 6 26% 8603 72284 13651 49%
c v 23.09 25 252 0 20 5407 27 58880 11599 3.9 31 8 2 6 26% 8605 72284 13651 49%
c w 23.14 25 252 0 20 5407 27 58880 11560 3.9 31 8 2 6 26% 8605 72284 13651 49%
c x 23.23 25 252 0 20 5407 27 58880 11556 3.9 31 8 2 6 26% 8605 71250 13651 49%
c
c  seconds   switched     rate         size/glue tier1    binary         remaining
c         MB   reductions   conflicts        size  tier2     irredundant
c           level   restarts      redundant    glue   trail         variables
c
c = 23.56 25 252 0 20 5407 27 58880 11556 3.9 31 8 2 6 26% 9815 71246 13046 47%
c d 23.57 25 252 0 20 5407 27 58880 10834 3.9 31 8 2 6 26% 8517 71246 13045 47%
c t 23.59 25 252 0 20 5407 27 58880 10834 3.9 31 8 2 6 26% 8514 71246 13045 47%
c f 23.64 25 252 0 20 5407 27 58880 10834 3.9 31 8 2 6 26% 8518 71231 13047 47%
c u 23.76 25 252 0 20 5407 27 58880 9904 3.9 31 8 2 6 26% 8523 71231 13047 47%
c v 23.81 25 252 0 20 5407 27 58880 9610 3.9 31 8 2 6 26% 8523 71231 13047 47%
c w 23.85 25 252 0 20 5407 27 58880 9596 3.9 31 8 2 6 26% 8523 71231 13047 47%
c x 23.98 25 252 0 20 5407 27 58880 9595 3.9 31 8 2 6 26% 8523 69763 13047 47%
c d 24.05 25 252 0 20 5407 27 58880 9594 3.9 31 8 2 6 26% 8521 69763 13046 47%
c - 24.90 25 245 0 21 5707 27 62676 11565 3.8 31 8 2 6 26% 8543 69762 13046 47%
c - 25.64 25 239 0 22 5984 26 67258 12498 3.8 30 8 1 6 26% 8567 69762 13046 47%
c o 25.68 25 232 0 22 5985 24 70321 14965 3.7 29 8 1 6 25% 8569 69762 13046 47%
c - 26.09 25 232 0 23 6180 25 71948 13072 3.7 29 8 1 6 25% 8580 69762 13046 47%
c - 27.18 25 227 0 24 6609 24 76744 14011 3.6 29 8 1 6 25% 8617 69762 13046 47%
c d 28.00 25 226 0 24 6927 24 79976 16647 3.7 30 8 1 6 25% 8562 69762 12995 47%
c u 28.06 25 226 0 24 6927 24 79976 14977 3.7 30 8 1 6 25% 8579 69762 12995 47%
c v 28.16 25 226 0 24 6927 24 79976 12294 3.7 30 8 1 6 25% 8588 69762 12995 47%
c w 28.29 25 226 0 24 6927 24 79976 12294 3.7 30 8 1 6 25% 8588 69762 12995 47%
c x 28.38 25 226 0 24 6927 24 79976 12292 3.7 30 8 1 6 25% 8588 67392 12995 47%
c d 28.39 25 226 0 24 6927 24 79976 12275 3.7 30 8 1 6 25% 8560 67392 12981 47%
c
c  seconds   switched     rate         size/glue tier1    binary         remaining
c         MB   reductions   conflicts        size  tier2     irredundant
c           level   restarts      redundant    glue   trail         variables
c
c t 28.41 25 226 0 24 6927 24 79976 12275 3.7 30 8 1 6 25% 8558 67392 12981 47%
c c 28.48 25 226 0 24 6927 24 79976 12266 3.7 30 8 1 6 25% 8603 67202 12958 47%
c d 28.49 25 226 0 24 6927 24 79976 12171 3.7 30 8 1 6 25% 8557 67202 12958 47%
c u 28.54 25 226 0 24 6927 24 79976 11708 3.7 30 8 1 6 25% 8564 67202 12958 47%
c v 28.61 25 226 0 24 6927 24 79976 11028 3.7 30 8 1 6 25% 8567 67202 12958 47%
c w 28.80 25 226 0 24 6927 24 79976 11009 3.7 30 8 1 6 25% 8567 67202 12958 47%
c x 28.91 25 226 0 24 6927 24 79976 11009 3.7 30 8 1 6 25% 8567 66256 12958 47%
c = 29.32 25 226 0 24 6927 24 79976 11009 3.7 30 8 1 6 25% 8933 66175 12767 46%
c d 29.33 25 226 0 24 6927 24 79976 10564 3.7 30 8 1 6 25% 8521 66175 12767 46%
c t 29.35 25 226 0 24 6927 24 79976 10564 3.7 30 8 1 6 25% 8519 66175 12767 46%
c i 29.48 25 225 0 24 6964 24 81374 11624 3.6 29 8 1 6 25% 8551 66173 12766 46%
c - 29.59 25 225 0 25 7004 24 81645 10095 3.6 29 8 1 6 25% 8545 66173 12766 46%
c i 29.90 25 222 0 25 7145 24 84004 12085 3.6 29 8 1 6 25% 8554 66172 12765 46%
c - 30.48 25 224 0 26 7387 24 86650 12324 3.6 29 8 1 6 25% 8562 66168 12765 46%
c i 30.55 25 223 0 26 7420 24 87444 12922 3.6 29 8 1 6 25% 8574 66168 12762 46%
c i 30.55 25 223 0 26 7420 24 87507 12952 3.6 29 8 1 6 25% 8579 66168 12761 46%
c i 30.55 25 223 0 26 7420 24 87588 12988 3.6 29 8 1 6 25% 8581 66168 12760 46%
c i 30.96 25 220 0 26 7571 24 89646 14840 3.6 28 8 1 6 25% 8592 66167 12759 46%
c i 31.19 25 220 0 26 7671 24 90534 15645 3.6 28 8 1 6 25% 8596 66164 12758 46%
c - 31.44 25 219 0 27 7763 23 91749 14195 3.5 28 8 1 6 25% 8595 66163 12758 46%
c
c  seconds   switched     rate         size/glue tier1    binary         remaining
c         MB   reductions   conflicts        size  tier2     irredundant
c           level   restarts      redundant    glue   trail         variables
c
c i 31.88 25 217 0 27 7965 24 93431 15676 3.5 28 8 1 6 25% 8604 66163 12757 46%
c i 31.96 25 217 0 27 7985 23 93926 16103 3.5 28 8 1 6 25% 8610 66163 12756 46%
c i 32.46 25 215 0 27 8179 24 95405 17455 3.5 28 8 1 6 26% 8615 66163 12755 46%
c i 32.46 25 215 0 27 8180 23 95529 17530 3.5 28 8 1 6 25% 8619 66163 12753 46%
c s 32.51 25 215 0 27 8190 23 95827 17796 3.5 28 8 1 6 26% 8613 65265 12753 46%
c e 32.64 26 215 0 27 8190 23 95827 17796 3.5 28 8 1 6 26% 5689 72372 11196 40%
c 2 32.64 26 215 0 27 8190 23 95827 17796 3.5 28 8 1 6 26% 5685 72372 11196 40%
c s 32.66 26 215 0 27 8190 23 95827 17796 3.5 28 8 1 6 26% 5686 72167 11196 40%
c e 32.67 26 215 0 27 8190 23 95827 17796 3.5 28 8 1 6 26% 5666 72178 11172 40%
c ^ 32.67 26 215 0 27 8190 23 95827 17796 3.5 28 8 1 6 26% 5666 72178 11172 40%
c i 32.71 26 215 0 27 8192 23 96031 13541 3.5 28 8 1 6 26% 5670 72178 11171 40%
c - 32.98 26 214 0 28 8315 23 96945 12460 3.5 28 8 1 6 26% 5666 72168 11171 40%
c - 34.48 26 207 0 29 9029 23 102236 14678 3.4 28 8 1 6 26% 5670 72167 11171 40%
c i 34.48 26 207 0 29 9032 23 102245 14679 3.4 28 8 1 6 26% 5673 72166 11170 40%
c c 35.26 26 204 0 29 9334 23 104648 16971 3.4 28 8 1 6 27% 5671 72151 11169 40%
c d 35.27 26 204 0 29 9334 23 104648 16964 3.4 28 8 1 6 27% 5671 72149 11169 40%
c d 35.27 26 204 0 29 9334 23 104648 16964 3.4 28 8 1 6 27% 5669 72149 11168 40%
c u 35.33 26 204 0 29 9334 23 104648 14821 3.4 28 8 1 6 27% 5684 72149 11167 40%
c v 35.45 26 204 0 29 9334 23 104648 12034 3.4 28 8 1 6 27% 5689 72149 11167 40%
c w 35.65 26 204 0 29 9334 23 104648 12018 3.4 28 8 1 6 27% 5688 72149 11167 40%
c
c  seconds   switched     rate          size/glue tier1    binary         remaining
c         MB   reductions   conflicts         size  tier2     irredundant
c           level   restarts       redundant    glue   trail         variables
c
c x 35.77 26 204 0 29 9334 23 104648 12018 3.4 28 8 1 6 27% 5692 72056 11167 40%
c = 36.37 26 204 0 29 9334 23 104648 12018 3.4 28 8 1 6 27% 5786 71797 11093 40%
c d 36.38 26 204 0 29 9334 23 104648 11752 3.4 28 8 1 6 27% 5681 71779 11093 40%
c t 36.39 26 204 0 29 9334 23 104648 11752 3.4 28 8 1 6 27% 5670 71779 11093 40%
c f 36.47 26 204 0 29 9334 23 104648 11752 3.4 28 8 1 6 27% 5677 71741 11096 40%
c b 36.48 26 204 0 29 9334 23 104648 11752 3.4 28 8 1 6 27% 5677 71741 11094 40%
c u 36.52 26 204 0 29 9334 23 104648 11166 3.4 28 8 1 6 27% 5678 71741 11094 40%
c v 36.60 26 204 0 29 9334 23 104648 10596 3.4 28 8 1 6 27% 5679 71741 11094 40%
c w 36.92 26 204 0 29 9334 23 104648 10426 3.4 28 8 1 6 27% 5679 71741 11094 40%
c t 37.54 26 204 0 29 9334 23 104648 10426 3.4 28 8 1 6 27% 5677 71741 11094 40%
c i 37.55 26 204 0 29 9334 23 104648 10426 3.4 28 8 1 6 27% 5677 71741 11094 40%
c i 37.62 26 204 0 29 9366 24 104841 10585 3.4 28 8 1 6 27% 5681 71741 11092 40%
c i 37.82 26 202 0 29 9432 23 106136 11780 3.4 28 8 1 6 27% 5683 71741 11091 40%
c i 37.83 26 201 0 29 9432 23 106162 11805 3.4 28 8 1 6 27% 5683 71741 11089 40%
c i 37.83 26 201 0 29 9432 23 106175 11804 3.4 28 8 1 6 27% 5685 71741 11088 40%
c i 37.83 26 201 0 29 9432 23 106178 11803 3.4 28 8 1 6 27% 5686 71741 11086 40%
c } 37.83 26 201 0 29 9432 23 106180 11803 3.4 28 8 1 6 27% 5686 71741 11071 40%
c 0 37.83 26 201 0 29 9432 23 106180 11803 3.4 28 8 1 6 27% 5686 71741 11071 40%
c
c ---- [ result ] ------------------------------------------------------------
c
s UNSATISFIABLE
c
c ---- [ profiling ] ---------------------------------------------------------
c
c          25.88   68.42 %  search
c          25.88   68.42 %  focused
c          11.64   30.76 %  simplify
c          11.06   29.23 %  probe
c           4.54   11.99 %  vivify
c           4.35   11.50 %  sweep
c           0.74    1.95 %  factor
c           0.72    1.91 %  eliminate
c           0.63    1.66 %  congruence
c           0.57    1.51 %  substitute
c           0.27    0.73 %  preprocess
c           0.21    0.55 %  reduce
c           0.16    0.42 %  transitive
c           0.13    0.35 %  subsume
c           0.13    0.34 %  fastel
c           0.07    0.20 %  backbone
c           0.02    0.05 %  lucky
c           0.02    0.04 %  parse
c =============================================
c          37.83  100.00 %  total
c
c ---- [ statistics ] --------------------------------------------------------
c
c chronological:                         4659                4 %  conflicts
c conflicts:                           106180             2807.01 per second
c congruent:                             2360                9 %  variables
c decisions:                          2465953               23.22 per conflict
c eliminated:                           12996               47 %  variables
c factored:                              5892               21 %  variables
c fast_eliminated:                       8859               68 %  eliminated
c fast_strengthened:                      116                9 %  per strengthened
c fast_subsumed:                           79                0 %  per subsumed
c iterations:                              19                0 %  variables
c propagations:                     105521223          2789595    per second
c reductions:                              29             3661    interval
c reordered:                                4            26545    interval
c restarts:                              9432               11    interval
c strengthened:                          1326                0 %  checks
c substituted:                           9482               34 %  variables
c subsumed:                             17812                1 %  checks
c switched:                                 0                0    interval
c vivified:                             55510               10 %  checks
c
c ---- [ glue usage ] --------------------------------------------------------
c
c focused glue 1   used 139660 clauses 53.40% accumulated 53.40% tier1
c focused glue 2   used  55856 clauses 21.36% accumulated 74.76%
c focused glue 3-4 used  31337 clauses 11.98% accumulated 86.74%
c focused glue 5   used   7560 clauses  2.89% accumulated 89.63%
c focused glue 6   used   5418 clauses  2.07% accumulated 91.70% tier2
c
c ---- [ resources ] ---------------------------------------------------------
c
c maximum-resident-set-size:         26800128 bytes         26 MB
c process-time:                            38s              37.83 seconds
c
c ---- [ shutting down ] -----------------------------------------------------
c
c exit 20
